100
1000
265
263
256
254
253
251
250
249
247
247
246
243
239
238
238
233
225
225
224
223
219
216
211
210
208
207
206
204
204
202
202
201
192
191
188
171
166
166
160
157
156
155
154
153
153
149
146
146
145
144
139
138
130
127
125
124
123
117
115
112
112
104
101
101
100
99
99
97
89
87
85
85
81
80
78
75
74
70
70
70
69
67
67
60
57
53
52
48
46
46
45
39
33
33
29
29
24
22
21
18
